167	32	4	80	
10	10	10	10

0	0	0	0	0	0	6	1	2	3	4	5	6
1	0	1	1	1	10	5	11	10	9	8	7
2	1	4	5	0	2	4	11	9	8	7
3	2	0	2	9	5	4	11	10	8	7
4	5	0	3	7	5	4	11	10	9	7
5	0	4	3	3	5	4	14	11	9	8
6	0	5	4	3	4	3	11	8	7
7	7	4	0	5	10	4	16	14	13	12
8	4	1	6	0	5	4	16	15	13	12
9	0	3	2	3	3	4	16	15	13	12
10	7	3	5	0	1	4	15	14	13	12
11	6	2	0	6	8	3	16	15	12
12	4	3	0	5	3	6	23	22	20	19	18	17
13	5	0	3	3	3	5	23	22	21	19	18
14	0	3	4	3	8	5	23	21	20	19	17
15	0	6	3	3	8	4	23	22	18	17
16	2	6	0	2	1	4	21	19	18	17
17	2	5	0	4	9	3	30	25	24
18	4	3	0	7	6	3	30	25	24
19	0	7	1	4	6	3	30	25	24
20	2	7	0	6	2	3	30	25	24
21	5	5	6	0	8	3	30	27	24
22	8	2	3	0	9	3	30	27	24
23	2	0	4	3	5	2	27	24
24	3	7	0	2	5	3	29	28	26
25	5	3	0	4	9	2	27	26
26	5	3	6	0	1	1	31
27	0	6	9	5	9	1	31
28	4	4	0	3	6	1	31
29	0	3	6	1	1	1	31
30	1	0	4	4	10	1	31
31	0	0	0	0	0	0
